
Gurobi 9.1.2 (linux64) logging started Wed Nov  3 08:10:39 2021

Changed value of parameter LogFile to lemke_sym-s60-l12.log
   Prev:   Default: 

Gurobi 9.1.2 (linux64) logging started Wed Nov  3 10:44:08 2021

Changed value of parameter LogFile to lemke_sym-s60-l12.log
   Prev:   Default: 
